submitit INFO (2023-04-29 16:43:29,415) - Starting with JobEnvironment(job_id=27475, hostname=cpunode2, local_rank=2(5), node=0(1), global_rank=2(5))
submitit INFO (2023-04-29 16:43:29,415) - Loading pickle: /h/30/pashootan/Matrix-Mult-CP/src/../logs/2x2x2_2_Apr29_16:43:27/27475_submitted.pkl
 ! --------------------------------------------------- CP Optimizer 22.1.1.0 --
 ! Satisfiability problem - 24 variables, 81 constraints
 ! TimeLimit            = 7200
 ! Workers              = 8
 ! LogPeriod            = 10000000
 ! RandomSeed           = 2618
 ! Initial process time : 0.00s (0.00s extraction + 0.00s propagation)
 !  . Log search space  : 35.7 (before), 35.7 (after)
 !  . Memory usage      : 332.0 kB (before), 332.0 kB (after)
 ! Using parallel search with 8 workers.
 ! ----------------------------------------------------------------------------
 !               Branches  Non-fixed    W       Branch decision
 ! ----------------------------------------------------------------------------
 ! Search completed, model has no solution.
 ! ----------------------------------------------------------------------------
 ! Number of branches     : 1080
 ! Number of fails        : 594
 ! Total memory usage     : 5.0 MB (4.9 MB CP Optimizer + 0.0 MB Concert)
 ! Time spent in solve    : 0.02s (0.02s engine + 0.00s extraction)
 ! Search speed (br. / s) : 108000.0
 ! ----------------------------------------------------------------------------
Infeasible
Saving stats to: /h/30/pashootan/Matrix-Mult-CP/logs/2x2x2_2_Apr29_16:43:27/27475_2_stats.csv
submitit INFO (2023-04-29 16:43:29,826) - Job completed successfully
